c --- [ banner ] -------------------------------------------------------------
c 
c CaDiCaL Radically Simplified CDCL SAT Solver
c Copyright (c) 2016-2021 A. Biere, M. Fleury, N. Froleyks
c 
c Version 1.5.2 a5f15211db36c3956764e18194dd5bd63bf3b5e6
c g++ (GCC) 9.3.0 -Wall -Wextra -O3 -DNDEBUG
c Fri Oct 21 01:27:37 EDT 2022 Linux gra-login3 3.10.0-1160.66.1.el7.x86_64 x86_64
c 
c --- [ limit ] --------------------------------------------------------------
c 
c setting conflict limit to 200000 conflicts (due to '200000')
c 
c --- [ parsing input ] ------------------------------------------------------
c 
c reading DIMACS file from '33.cubes6335.adj'
c opening file to read '33.cubes6335.adj'
c found 'p cnf 6160 1595477' header
c parsed 1595477 clauses in 20.54 seconds process time
c closing file '33.cubes6335.adj'
c after reading 1457566790 bytes 1390.0 MB
c 
c --- [ options ] ------------------------------------------------------------
c 
c all options are set to their default value
c 
c --- [ solving ] ------------------------------------------------------------
c 
c time measured in process time since initialization
c 
c  seconds    reductions  redundant   irredundant
c          MB     restarts       trail       variables
c            level   conflicts       glue         remaining
c 
c * 20.54 1382  0 0   0    0    0  0% 0 1595422 2307 37%
c { 22.65 1457  0 0   0    0    0  0% 0 1595422 2307 37%
c i 26.80 1516 615 0   7   67   54 33% 12 1595422 2306 37%
c i 27.13 1520 537 0   9   77   63 32% 17 1595422 2305 37%
c i 28.10 1524 431 0  15   96   79 31% 17 1595422 2304 37%
c i 28.36 1526 405 0  16  103   85 31% 19 1595422 2303 37%
c - 34.75 1490 157 1  33  302  173 26% 18 349138 2303 37%
c i 37.16 1431 100 1  66  624  365 25% 20 349138 2302 37%
c i 39.37 1433 92 1  89  800  517 26% 20 349138 2301 37%
c i 40.26 1433 83 1  89  911  596 26% 19 349138 2300 37%
c i 40.83 1433 79 1  89  980  648 27% 19 349138 2299 37%
c } 40.97 1433 78 1  89 1000  661 27% 19 349138 2299 37%
c [ 40.97 1433  0 1  89 1000  661  0% 0 349138 2299 37%
c O 41.01 1433 18 1  89 1005  663 27% 18 349138 2299 37%
c i 41.60 1433 21 1  89 1103  729 28% 17 349138 2298 37%
c ] 41.66 1433 23 1  89 1135  754 29% 19 349138 2298 37%
c 1 41.66 1433 23 1  89 1135  754 29% 19 349138 2298 37%
c 
c --- [ writing output ] -----------------------------------------------------
c 
c writing simplified CNF to DIMACS file 'simp/33.cubes6335.adj.simp1'
c * 41.66 1433 23 1  89 1135  754 29% 19 349138 2298 37%
c opening file to write 'simp/33.cubes6335.adj.simp1'
c writing 'p cnf 6160 349123' header
c closing file 'simp/33.cubes6335.adj.simp1'
c after writing 182743487 bytes 174.3 MB
c wrote 349123 clauses in 1.57 seconds process time
c 
c --- [ writing extension ] --------------------------------------------------
c 
c writing extension stack to 'simp/33.cubes6335.adj.ext1'
c opening file to write 'simp/33.cubes6335.adj.ext1'
c closing file 'simp/33.cubes6335.adj.ext1'
c after writing 10648 bytes 0.0 MB
c wrote 718 witnesses in 0.00 seconds process time
c 
c --- [ result ] -------------------------------------------------------------
c 
s SATISFIABLE
c 
c --- [ run-time profiling ] -------------------------------------------------
c 
c process time taken by individual solving procedures
c (percentage relative to process time for solving)
c 
c        21.12  100.00% search
c        20.54   97.26% parse
c        18.32   86.74% unstable
c         2.11   10.01% lucky
c         0.69    3.25% stable
c         0.00    0.00% simplify
c   =================================
c        21.12   48.85% solve
c 
c last line shows process time for solving
c (percentage relative to total process time)
c 
c --- [ statistics ] ---------------------------------------------------------
c 
c chronological:               327        28.81 %  of conflicts
c conflicts:                  1135        53.75    per second
c decisions:                 16786       794.94    per second
c fixed:                       718        11.66 %  of all variables
c learned:                    1101        97.00 %  per conflict
c learned_lits:              96775       100.00 %  learned literals
c minimized:                     0         0.00 %  learned literals
c shrunken:                  42283        43.69 %  learned literals
c minishrunken:              10688        11.04 %  learned literals
c propagations:             193703         0.01 M  per second
c rephased:                      1      1135.00    interval
c restarts:                     89        12.75    interval
c stabilizing:                   1        11.89 %  of conflicts
c subsumed:                    338         0.01 %  of all clauses
c 
c seconds are measured in process time for solving
c 
c --- [ resources ] ----------------------------------------------------------
c 
c total process time since initialization:        43.23    seconds
c total real time since initialization:           43.38    seconds
c maximum resident set size of process:         1536.88    MB
c 
c --- [ shutting down ] ------------------------------------------------------
c 
c exit 10
WARNING! DIMACS header mismatch: wrong number of variables.
============================[ Problem Statistics ]=============================
|                                                                             |
|  Number of variables:          6120                                         |
|  Number of clauses:          349123                                         |
|  Parse time:                   2.53 s                                       |
|  Simplification time:          0.07 s                                       |
|                                                                             |
============================[ Search Statistics ]====================================================
| Conflicts |          ORIGINAL         |          LEARNT          | Num Sols |      SUBGRAPHS      |
|           |    Vars  Clauses Literals |    Limit  Clauses Lit/Cl |          | Canonical Noncanon. |
=====================================================================================================
|       102 |    6027   349125 39694284 |     2000      100     75 |        0 |        20         2 |
|       266 |    6025   349139 39694900 |     2000      262     71 |        0 |        45        16 |
|       863 |    6024   349511 39701958 |     2000      858     36 |        0 |       199       388 |
|      3639 |    6024   351950 39747418 |     3600     2639     16 |        0 |       541      2827 |
|      9523 |    6024   357328 39865974 |     6309     4232     17 |        0 |      1552      8205 |
|     11319 |    6008   358365 39887084 |     6309     6021     26 |        0 |      1816      9242 |
|     17277 |    6003   363184 39981087 |     8779     5051     25 |        0 |      2555     14061 |
|     19123 |    5978   363322 39984030 |     8779     6872     50 |        0 |      2655     14199 |
|     23046 |    5964   364683 40012875 |     9971     6411     42 |        0 |      3012     15560 |
|     35639 |    5960   373432 40203992 |    12401     8439     25 |        0 |      4959     24309 |
|     41486 |    5960   373513 40206356 |    13599     8085     37 |        0 |      5007     24390 |
|     55174 |    5959   378552 40310753 |    16003     7577     15 |        0 |      5884     29429 |
|     88894 |    5959   399298 40690961 |    19609    15503     48 |        0 |      9585     50175 |
|    115597 |    5959   406540 40830470 |    22013    22010     40 |        0 |     10830     57417 |
|    156758 |    5959   418509 41066118 |    26817    15575     32 |        0 |     12836     69386 |
|    240292 |    5959   458254 41846677 |    32821    26113     23 |        0 |     20965    109131 |
|    347021 |    5958   499299 42580525 |    40024    25445     41 |        0 |     25593    150176 |
|    505983 |    5958   505054 37468709 |    48411    31794     42 |        0 |     30637    210612 |
|    855459 |    5958   706741 40646839 |    62820    51279     66 |        0 |     40514    412299 |
|   1123084 |    5958   752683 41392815 |    72411    50895     50 |        0 |     44929    458241 |
|   1640104 |    5958   937178 44646866 |    88022    50526     26 |        0 |     58578    642736 |
|   2655347 |    5956  1453630 53088738 |   112026    71773     33 |        0 |     87843   1159191 |
|   3607119 |    5940  1260415 49971874 |   130022    76294     56 |        0 |     96020   1362781 |
=====================================================================================================
Number of solutions   : 0
Canonical subgraphs   : 110471         (18 /sec)
          order  3    : 1              (142857 /sec)
          order  4    : 1              (500000 /sec)
          order  5    : 1              (250000 /sec)
          order  6    : 1              (52632 /sec)
          order  7    : 1              (8547 /sec)
          order  8    : 2              (1311 /sec)
          order  9    : 10             (421 /sec)
          order 10    : 46             (150 /sec)
          order 11    : 264            (53 /sec)
          order 12    : 1416           (25 /sec)
          order 13    : 7803           (17 /sec)
          order 14    : 88107          (18 /sec)
          order 15    : 7880           (22 /sec)
          order 16    : 4518           (17 /sec)
          order 17    : 376            (14 /sec)
          order 18    : 43             (9 /sec)
          order 19    : 1              (6 /sec)
          order 20    : 0              (-nan /sec)
          order 21    : 0              (-nan /sec)
          order 22    : 0              (-nan /sec)
Noncanonical subgraphs: 1871573        (133 /sec)
          order  3    : 0              (-nan /sec)
          order  4    : 0              (-nan /sec)
          order  5    : 0              (-nan /sec)
          order  6    : 0              (-nan /sec)
          order  7    : 0              (-nan /sec)
          order  8    : 0              (-nan /sec)
          order  9    : 0              (-nan /sec)
          order 10    : 0              (-nan /sec)
          order 11    : 0              (-nan /sec)
          order 12    : 0              (-nan /sec)
          order 13    : 28529          (2917 /sec)
          order 14    : 161845         (805 /sec)
          order 15    : 1656773        (121 /sec)
          order 16    : 18697          (189 /sec)
          order 17    : 5145           (144 /sec)
          order 18    : 533            (142 /sec)
          order 19    : 51             (42 /sec)
          order 20    : 0              (-nan /sec)
          order 21    : 0              (-nan /sec)
Canonicity checking   : 6183.4 s
Noncanonicity checking: 14044.1 s
Total canonicity time : 20227.5 s
database reductions   : 124
restarts              : 8190
conflicts             : 4826274        (204 /sec)
decisions             : 7587078        (0.00 % random) (320 /sec)
propagations          : 510421693      (21556 /sec)
conflict literals     : 392770874      (54.31 % deleted)
actual reward         : 0.094242
Memory used           : 828.00 MB
CPU time              : 23678.5 s

UNSATISFIABLE
